p cnf 200 1110
-101 -14 0
-101 25 0
-101 -32 0
-101 40 0
-101 -90 0
-101 -63 0
-101 -88 0
-101 -94 0
-101 11 0
-101 -55 0
101 14 -25 32 -40 90 63 88 94 -11 55 0
-102 50 0
-102 16 0
-102 -12 0
-102 -94 0
-102 -57 0
-102 54 0
-102 23 0
-102 62 0
-102 -46 0
-102 -11 0
102 -50 -16 12 94 57 -54 -23 -62 46 11 0
-103 37 0
-103 -82 0
-103 88 0
-103 -86 0
-103 15 0
-103 -67 0
-103 63 0
-103 -85 0
-103 -48 0
-103 -51 0
103 -37 82 -88 86 -15 67 -63 85 48 51 0
-104 -19 0
-104 -89 0
-104 7 0
-104 -1 0
-104 -88 0
-104 95 0
-104 -87 0
-104 -37 0
-104 93 0
-104 -79 0
104 19 89 -7 1 88 -95 87 37 -93 79 0
-105 -39 0
-105 -23 0
-105 27 0
-105 -20 0
-105 -13 0
-105 -69 0
-105 17 0
-105 25 0
-105 -9 0
-105 54 0
105 39 23 -27 20 13 69 -17 -25 9 -54 0
-106 -74 0
-106 64 0
-106 37 0
-106 100 0
-106 28 0
-106 -46 0
-106 -83 0
-106 63 0
-106 65 0
-106 -35 0
106 74 -64 -37 -100 -28 46 83 -63 -65 35 0
-107 28 0
-107 44 0
-107 -6 0
-107 69 0
-107 -68 0
-107 14 0
-107 53 0
-107 97 0
-107 21 0
-107 93 0
107 -28 -44 6 -69 68 -14 -53 -97 -21 -93 0
-108 37 0
-108 35 0
-108 -79 0
-108 80 0
-108 -38 0
-108 -77 0
-108 91 0
-108 69 0
-108 95 0
-108 44 0
108 -37 -35 79 -80 38 77 -91 -69 -95 -44 0
-109 -62 0
-109 17 0
-109 73 0
-109 40 0
-109 -21 0
-109 -18 0
-109 -95 0
-109 -78 0
-109 48 0
-109 85 0
109 62 -17 -73 -40 21 18 95 78 -48 -85 0
-110 94 0
-110 -37 0
-110 -4 0
-110 24 0
-110 -95 0
-110 -44 0
-110 31 0
-110 -30 0
-110 42 0
-110 -8 0
110 -94 37 4 -24 95 44 -31 30 -42 8 0
101 102 103 104 105 106 107 108 109 110 0
-111 96 0
-111 -93 0
-111 -43 0
-111 65 0
-111 8 0
-111 80 0
-111 -91 0
-111 -28 0
-111 98 0
-111 63 0
111 -96 93 43 -65 -8 -80 91 28 -98 -63 0
-112 -94 0
-112 42 0
-112 33 0
-112 62 0
-112 -93 0
-112 -21 0
-112 -60 0
-112 87 0
-112 -75 0
-112 15 0
112 94 -42 -33 -62 93 21 60 -87 75 -15 0
-113 -44 0
-113 -66 0
-113 84 0
-113 12 0
-113 63 0
-113 67 0
-113 -41 0
-113 88 0
-113 77 0
-113 -16 0
113 44 66 -84 -12 -63 -67 41 -88 -77 16 0
-114 24 0
-114 3 0
-114 99 0
-114 -25 0
-114 97 0
-114 -43 0
-114 93 0
-114 -33 0
-114 1 0
-114 -70 0
114 -24 -3 -99 25 -97 43 -93 33 -1 70 0
-115 13 0
-115 76 0
-115 15 0
-115 27 0
-115 4 0
-115 -88 0
-115 87 0
-115 -19 0
-115 5 0
-115 -74 0
115 -13 -76 -15 -27 -4 88 -87 19 -5 74 0
-116 -9 0
-116 -73 0
-116 98 0
-116 76 0
-116 -24 0
-116 -80 0
-116 84 0
-116 38 0
-116 13 0
-116 -33 0
116 9 73 -98 -76 24 80 -84 -38 -13 33 0
-117 20 0
-117 -43 0
-117 11 0
-117 83 0
-117 -98 0
-117 34 0
-117 -90 0
-117 21 0
-117 31 0
-117 -63 0
117 -20 43 -11 -83 98 -34 90 -21 -31 63 0
-118 34 0
-118 -20 0
-118 -5 0
-118 86 0
-118 -35 0
-118 -91 0
-118 -55 0
-118 64 0
-118 100 0
-118 -89 0
118 -34 20 5 -86 35 91 55 -64 -100 89 0
-119 6 0
-119 58 0
-119 89 0
-119 -39 0
-119 -21 0
-119 -23 0
-119 -30 0
-119 -8 0
-119 82 0
-119 -91 0
119 -6 -58 -89 39 21 23 30 8 -82 91 0
-120 96 0
-120 -85 0
-120 20 0
-120 -24 0
-120 -49 0
-120 55 0
-120 -18 0
-120 -38 0
-120 90 0
-120 26 0
120 -96 85 -20 24 49 -55 18 38 -90 -26 0
111 112 113 114 115 116 117 118 119 120 0
-121 -47 0
-121 68 0
-121 44 0
-121 -49 0
-121 -95 0
-121 -61 0
-121 22 0
-121 -48 0
-121 97 0
-121 75 0
121 47 -68 -44 49 95 61 -22 48 -97 -75 0
-122 -77 0
-122 48 0
-122 59 0
-122 21 0
-122 -31 0
-122 -20 0
-122 68 0
-122 70 0
-122 -41 0
-122 33 0
122 77 -48 -59 -21 31 20 -68 -70 41 -33 0
-123 -15 0
-123 -50 0
-123 34 0
-123 73 0
-123 -14 0
-123 -25 0
-123 4 0
-123 -80 0
-123 -93 0
-123 65 0
123 15 50 -34 -73 14 25 -4 80 93 -65 0
-124 -27 0
-124 -39 0
-124 -70 0
-124 -41 0
-124 -75 0
-124 82 0
-124 13 0
-124 3 0
-124 20 0
-124 85 0
124 27 39 70 41 75 -82 -13 -3 -20 -85 0
-125 7 0
-125 -55 0
-125 97 0
-125 91 0
-125 9 0
-125 14 0
-125 -28 0
-125 63 0
-125 -99 0
-125 76 0
125 -7 55 -97 -91 -9 -14 28 -63 99 -76 0
-126 42 0
-126 48 0
-126 71 0
-126 59 0
-126 44 0
-126 -34 0
-126 81 0
-126 70 0
-126 86 0
-126 -53 0
126 -42 -48 -71 -59 -44 34 -81 -70 -86 53 0
-127 -37 0
-127 70 0
-127 76 0
-127 35 0
-127 46 0
-127 88 0
-127 41 0
-127 -30 0
-127 15 0
-127 34 0
127 37 -70 -76 -35 -46 -88 -41 30 -15 -34 0
-128 97 0
-128 29 0
-128 -99 0
-128 -57 0
-128 93 0
-128 -94 0
-128 -79 0
-128 14 0
-128 -31 0
-128 -86 0
128 -97 -29 99 57 -93 94 79 -14 31 86 0
-129 -56 0
-129 -59 0
-129 68 0
-129 86 0
-129 63 0
-129 8 0
-129 80 0
-129 -54 0
-129 -12 0
-129 -57 0
129 56 59 -68 -86 -63 -8 -80 54 12 57 0
-130 -98 0
-130 73 0
-130 10 0
-130 48 0
-130 -51 0
-130 46 0
-130 15 0
-130 -52 0
-130 -89 0
-130 6 0
130 98 -73 -10 -48 51 -46 -15 52 89 -6 0
121 122 123 124 125 126 127 128 129 130 0
-131 -21 0
-131 47 0
-131 -72 0
-131 26 0
-131 -100 0
-131 40 0
-131 -33 0
-131 -84 0
-131 -96 0
-131 93 0
131 21 -47 72 -26 100 -40 33 84 96 -93 0
-132 21 0
-132 -9 0
-132 44 0
-132 -15 0
-132 -34 0
-132 85 0
-132 -10 0
-132 -64 0
-132 -75 0
-132 72 0
132 -21 9 -44 15 34 -85 10 64 75 -72 0
-133 17 0
-133 99 0
-133 56 0
-133 51 0
-133 -72 0
-133 25 0
-133 24 0
-133 -50 0
-133 94 0
-133 -16 0
133 -17 -99 -56 -51 72 -25 -24 50 -94 16 0
-134 -72 0
-134 -48 0
-134 97 0
-134 92 0
-134 27 0
-134 -96 0
-134 65 0
-134 -87 0
-134 2 0
-134 84 0
134 72 48 -97 -92 -27 96 -65 87 -2 -84 0
-135 36 0
-135 70 0
-135 -46 0
-135 -14 0
-135 90 0
-135 72 0
-135 -71 0
-135 37 0
-135 64 0
-135 -51 0
135 -36 -70 46 14 -90 -72 71 -37 -64 51 0
-136 56 0
-136 -70 0
-136 -22 0
-136 -96 0
-136 34 0
-136 -57 0
-136 82 0
-136 -81 0
-136 8 0
-136 -98 0
136 -56 70 22 96 -34 57 -82 81 -8 98 0
-137 60 0
-137 82 0
-137 -90 0
-137 -94 0
-137 -30 0
-137 50 0
-137 88 0
-137 86 0
-137 70 0
-137 44 0
137 -60 -82 90 94 30 -50 -88 -86 -70 -44 0
-138 85 0
-138 -60 0
-138 1 0
-138 93 0
-138 90 0
-138 -58 0
-138 -32 0
-138 50 0
-138 -66 0
-138 -80 0
138 -85 60 -1 -93 -90 58 32 -50 66 80 0
-139 27 0
-139 64 0
-139 53 0
-139 43 0
-139 35 0
-139 -54 0
-139 -62 0
-139 -38 0
-139 -89 0
-139 -30 0
139 -27 -64 -53 -43 -35 54 62 38 89 30 0
-140 95 0
-140 -46 0
-140 -43 0
-140 -45 0
-140 -30 0
-140 -3 0
-140 -19 0
-140 22 0
-140 72 0
-140 -7 0
140 -95 46 43 45 30 3 19 -22 -72 7 0
131 132 133 134 135 136 137 138 139 140 0
-141 -87 0
-141 74 0
-141 63 0
-141 9 0
-141 -6 0
-141 25 0
-141 -75 0
-141 -44 0
-141 -60 0
-141 65 0
141 87 -74 -63 -9 6 -25 75 44 60 -65 0
-142 90 0
-142 -33 0
-142 23 0
-142 -6 0
-142 -66 0
-142 10 0
-142 -49 0
-142 71 0
-142 -59 0
-142 -2 0
142 -90 33 -23 6 66 -10 49 -71 59 2 0
-143 6 0
-143 18 0
-143 -58 0
-143 -24 0
-143 -56 0
-143 -21 0
-143 66 0
-143 28 0
-143 67 0
-143 88 0
143 -6 -18 58 24 56 21 -66 -28 -67 -88 0
-144 -23 0
-144 38 0
-144 -48 0
-144 -90 0
-144 68 0
-144 59 0
-144 40 0
-144 -31 0
-144 -94 0
-144 -100 0
144 23 -38 48 90 -68 -59 -40 31 94 100 0
-145 -96 0
-145 12 0
-145 32 0
-145 -60 0
-145 -11 0
-145 75 0
-145 -2 0
-145 8 0
-145 -49 0
-145 86 0
145 96 -12 -32 60 11 -75 2 -8 49 -86 0
-146 84 0
-146 29 0
-146 -23 0
-146 77 0
-146 -22 0
-146 13 0
-146 -6 0
-146 62 0
-146 92 0
-146 59 0
146 -84 -29 23 -77 22 -13 6 -62 -92 -59 0
-147 -39 0
-147 -11 0
-147 -12 0
-147 1 0
-147 -71 0
-147 -59 0
-147 72 0
-147 14 0
-147 -66 0
-147 -2 0
147 39 11 12 -1 71 59 -72 -14 66 2 0
-148 23 0
-148 -43 0
-148 -24 0
-148 -100 0
-148 45 0
-148 -55 0
-148 32 0
-148 70 0
-148 -13 0
-148 -34 0
148 -23 43 24 100 -45 55 -32 -70 13 34 0
-149 -57 0
-149 -94 0
-149 -96 0
-149 91 0
-149 46 0
-149 98 0
-149 -33 0
-149 26 0
-149 -13 0
-149 -41 0
149 57 94 96 -91 -46 -98 33 -26 13 41 0
-150 -36 0
-150 50 0
-150 -53 0
-150 -38 0
-150 -76 0
-150 -69 0
-150 41 0
-150 46 0
-150 39 0
-150 40 0
150 36 -50 53 38 76 69 -41 -46 -39 -40 0
141 142 143 144 145 146 147 148 149 150 0
-151 -49 0
-151 -9 0
-151 58 0
-151 21 0
-151 -69 0
-151 -65 0
-151 51 0
-151 -71 0
-151 96 0
-151 -30 0
151 49 9 -58 -21 69 65 -51 71 -96 30 0
-152 61 0
-152 -84 0
-152 -98 0
-152 -13 0
-152 -82 0
-152 -78 0
-152 33 0
-152 68 0
-152 91 0
-152 -80 0
152 -61 84 98 13 82 78 -33 -68 -91 80 0
-153 30 0
-153 -48 0
-153 26 0
-153 99 0
-153 -13 0
-153 -61 0
-153 -28 0
-153 63 0
-153 -55 0
-153 -3 0
153 -30 48 -26 -99 13 61 28 -63 55 3 0
-154 33 0
-154 -85 0
-154 53 0
-154 -2 0
-154 -21 0
-154 16 0
-154 -24 0
-154 11 0
-154 -3 0
-154 -30 0
154 -33 85 -53 2 21 -16 24 -11 3 30 0
-155 -43 0
-155 55 0
-155 79 0
-155 -62 0
-155 98 0
-155 -32 0
-155 -17 0
-155 -69 0
-155 -71 0
-155 -67 0
155 43 -55 -79 62 -98 32 17 69 71 67 0
-156 41 0
-156 -2 0
-156 -49 0
-156 -10 0
-156 -74 0
-156 -80 0
-156 -63 0
-156 42 0
-156 -6 0
-156 45 0
156 -41 2 49 10 74 80 63 -42 6 -45 0
-157 75 0
-157 -84 0
-157 -82 0
-157 -86 0
-157 -45 0
-157 44 0
-157 -71 0
-157 -83 0
-157 91 0
-157 66 0
157 -75 84 82 86 45 -44 71 83 -91 -66 0
-158 65 0
-158 73 0
-158 -60 0
-158 74 0
-158 12 0
-158 35 0
-158 90 0
-158 61 0
-158 -47 0
-158 -68 0
158 -65 -73 60 -74 -12 -35 -90 -61 47 68 0
-159 98 0
-159 45 0
-159 -2 0
-159 -37 0
-159 21 0
-159 71 0
-159 -26 0
-159 41 0
-159 -34 0
-159 31 0
159 -98 -45 2 37 -21 -71 26 -41 34 -31 0
-160 -90 0
-160 -38 0
-160 12 0
-160 -9 0
-160 -49 0
-160 19 0
-160 -34 0
-160 -64 0
-160 60 0
-160 -29 0
160 90 38 -12 9 49 -19 34 64 -60 29 0
151 152 153 154 155 156 157 158 159 160 0
-161 -47 0
-161 -51 0
-161 57 0
-161 -82 0
-161 -55 0
-161 99 0
-161 95 0
-161 -14 0
-161 -11 0
-161 -27 0
161 47 51 -57 82 55 -99 -95 14 11 27 0
-162 46 0
-162 2 0
-162 64 0
-162 -81 0
-162 7 0
-162 -9 0
-162 13 0
-162 -37 0
-162 -91 0
-162 -97 0
162 -46 -2 -64 81 -7 9 -13 37 91 97 0
-163 44 0
-163 75 0
-163 -39 0
-163 64 0
-163 -73 0
-163 -37 0
-163 53 0
-163 80 0
-163 35 0
-163 67 0
163 -44 -75 39 -64 73 37 -53 -80 -35 -67 0
-164 36 0
-164 73 0
-164 -96 0
-164 -85 0
-164 -16 0
-164 44 0
-164 46 0
-164 -17 0
-164 20 0
-164 -87 0
164 -36 -73 96 85 16 -44 -46 17 -20 87 0
-165 -94 0
-165 -91 0
-165 -41 0
-165 -29 0
-165 98 0
-165 -42 0
-165 46 0
-165 84 0
-165 -100 0
-165 50 0
165 94 91 41 29 -98 42 -46 -84 100 -50 0
-166 -56 0
-166 78 0
-166 35 0
-166 -33 0
-166 37 0
-166 47 0
-166 -99 0
-166 88 0
-166 -23 0
-166 -87 0
166 56 -78 -35 33 -37 -47 99 -88 23 87 0
-167 -81 0
-167 -29 0
-167 84 0
-167 26 0
-167 -49 0
-167 -85 0
-167 48 0
-167 41 0
-167 34 0
-167 96 0
167 81 29 -84 -26 49 85 -48 -41 -34 -96 0
-168 80 0
-168 99 0
-168 6 0
-168 81 0
-168 47 0
-168 -71 0
-168 -76 0
-168 29 0
-168 -12 0
-168 -66 0
168 -80 -99 -6 -81 -47 71 76 -29 12 66 0
-169 60 0
-169 37 0
-169 -24 0
-169 -79 0
-169 -67 0
-169 82 0
-169 51 0
-169 17 0
-169 -69 0
-169 45 0
169 -60 -37 24 79 67 -82 -51 -17 69 -45 0
-170 -16 0
-170 61 0
-170 -48 0
-170 -85 0
-170 15 0
-170 -46 0
-170 -20 0
-170 -26 0
-170 -12 0
-170 -42 0
170 16 -61 48 85 -15 46 20 26 12 42 0
161 162 163 164 165 166 167 168 169 170 0
-171 68 0
-171 -72 0
-171 -13 0
-171 22 0
-171 52 0
-171 -91 0
-171 -73 0
-171 11 0
-171 -41 0
-171 -99 0
171 -68 72 13 -22 -52 91 73 -11 41 99 0
-172 -91 0
-172 -74 0
-172 81 0
-172 -50 0
-172 -99 0
-172 -15 0
-172 51 0
-172 -41 0
-172 44 0
-172 -63 0
172 91 74 -81 50 99 15 -51 41 -44 63 0
-173 65 0
-173 5 0
-173 -43 0
-173 14 0
-173 35 0
-173 71 0
-173 27 0
-173 -17 0
-173 -95 0
-173 25 0
173 -65 -5 43 -14 -35 -71 -27 17 95 -25 0
-174 -36 0
-174 7 0
-174 -81 0
-174 -9 0
-174 34 0
-174 -30 0
-174 66 0
-174 -99 0
-174 44 0
-174 -88 0
174 36 -7 81 9 -34 30 -66 99 -44 88 0
-175 34 0
-175 -8 0
-175 -43 0
-175 -80 0
-175 -72 0
-175 -75 0
-175 66 0
-175 49 0
-175 -98 0
-175 12 0
175 -34 8 43 80 72 75 -66 -49 98 -12 0
-176 -73 0
-176 -3 0
-176 59 0
-176 49 0
-176 36 0
-176 46 0
-176 -75 0
-176 63 0
-176 91 0
-176 -83 0
176 73 3 -59 -49 -36 -46 75 -63 -91 83 0
-177 -34 0
-177 -91 0
-177 -84 0
-177 -83 0
-177 94 0
-177 -67 0
-177 98 0
-177 -5 0
-177 -64 0
-177 56 0
177 34 91 84 83 -94 67 -98 5 64 -56 0
-178 86 0
-178 -66 0
-178 -8 0
-178 59 0
-178 -70 0
-178 -6 0
-178 -63 0
-178 -10 0
-178 -12 0
-178 -38 0
178 -86 66 8 -59 70 6 63 10 12 38 0
-179 -54 0
-179 -85 0
-179 -52 0
-179 66 0
-179 -98 0
-179 -71 0
-179 -19 0
-179 -57 0
-179 2 0
-179 60 0
179 54 85 52 -66 98 71 19 57 -2 -60 0
-180 97 0
-180 -49 0
-180 38 0
-180 -42 0
-180 63 0
-180 -78 0
-180 -72 0
-180 -22 0
-180 77 0
-180 76 0
180 -97 49 -38 42 -63 78 72 22 -77 -76 0
171 172 173 174 175 176 177 178 179 180 0
-181 -85 0
-181 -67 0
-181 -80 0
-181 86 0
-181 97 0
-181 70 0
-181 41 0
-181 90 0
-181 -39 0
-181 -36 0
181 85 67 80 -86 -97 -70 -41 -90 39 36 0
-182 62 0
-182 -24 0
-182 -60 0
-182 -65 0
-182 56 0
-182 -83 0
-182 -64 0
-182 -3 0
-182 5 0
-182 -96 0
182 -62 24 60 65 -56 83 64 3 -5 96 0
-183 97 0
-183 -7 0
-183 -24 0
-183 6 0
-183 31 0
-183 -54 0
-183 -86 0
-183 -35 0
-183 -3 0
-183 -81 0
183 -97 7 24 -6 -31 54 86 35 3 81 0
-184 -100 0
-184 -82 0
-184 -2 0
-184 -68 0
-184 97 0
-184 -32 0
-184 -81 0
-184 -40 0
-184 62 0
-184 73 0
184 100 82 2 68 -97 32 81 40 -62 -73 0
-185 48 0
-185 -62 0
-185 89 0
-185 -86 0
-185 61 0
-185 -100 0
-185 41 0
-185 -42 0
-185 -96 0
-185 31 0
185 -48 62 -89 86 -61 100 -41 42 96 -31 0
-186 98 0
-186 63 0
-186 -94 0
-186 9 0
-186 -67 0
-186 -3 0
-186 -47 0
-186 -90 0
-186 -33 0
-186 -45 0
186 -98 -63 94 -9 67 3 47 90 33 45 0
-187 -9 0
-187 -29 0
-187 78 0
-187 -99 0
-187 -36 0
-187 -14 0
-187 -56 0
-187 79 0
-187 82 0
-187 -7 0
187 9 29 -78 99 36 14 56 -79 -82 7 0
-188 -86 0
-188 88 0
-188 -38 0
-188 68 0
-188 100 0
-188 83 0
-188 87 0
-188 17 0
-188 -16 0
-188 1 0
188 86 -88 38 -68 -100 -83 -87 -17 16 -1 0
-189 28 0
-189 20 0
-189 -85 0
-189 -57 0
-189 -87 0
-189 -65 0
-189 -80 0
-189 -88 0
-189 83 0
-189 -4 0
189 -28 -20 85 57 87 65 80 88 -83 4 0
-190 -54 0
-190 50 0
-190 23 0
-190 -75 0
-190 31 0
-190 19 0
-190 -79 0
-190 78 0
-190 -63 0
-190 89 0
190 54 -50 -23 75 -31 -19 79 -78 63 -89 0
181 182 183 184 185 186 187 188 189 190 0
-191 -53 0
-191 -50 0
-191 73 0
-191 -93 0
-191 24 0
-191 74 0
-191 -4 0
-191 81 0
-191 61 0
-191 -41 0
191 53 50 -73 93 -24 -74 4 -81 -61 41 0
-192 -88 0
-192 -77 0
-192 -33 0
-192 -68 0
-192 95 0
-192 -79 0
-192 -46 0
-192 -48 0
-192 -87 0
-192 -90 0
192 88 77 33 68 -95 79 46 48 87 90 0
-193 34 0
-193 -16 0
-193 -61 0
-193 -75 0
-193 97 0
-193 27 0
-193 72 0
-193 -17 0
-193 38 0
-193 76 0
193 -34 16 61 75 -97 -27 -72 17 -38 -76 0
-194 96 0
-194 70 0
-194 -94 0
-194 -71 0
-194 -61 0
-194 -22 0
-194 78 0
-194 -55 0
-194 -30 0
-194 32 0
194 -96 -70 94 71 61 22 -78 55 30 -32 0
-195 15 0
-195 -44 0
-195 76 0
-195 46 0
-195 -10 0
-195 -60 0
-195 -78 0
-195 -51 0
-195 -99 0
-195 22 0
195 -15 44 -76 -46 10 60 78 51 99 -22 0
-196 5 0
-196 -96 0
-196 39 0
-196 -68 0
-196 67 0
-196 78 0
-196 36 0
-196 -47 0
-196 21 0
-196 -28 0
196 -5 96 -39 68 -67 -78 -36 47 -21 28 0
-197 -25 0
-197 63 0
-197 -51 0
-197 39 0
-197 76 0
-197 46 0
-197 11 0
-197 -62 0
-197 29 0
-197 -14 0
197 25 -63 51 -39 -76 -46 -11 62 -29 14 0
-198 7 0
-198 -72 0
-198 -54 0
-198 -64 0
-198 -18 0
-198 22 0
-198 -55 0
-198 97 0
-198 -28 0
-198 -88 0
198 -7 72 54 64 18 -22 55 -97 28 88 0
-199 29 0
-199 98 0
-199 -64 0
-199 43 0
-199 -76 0
-199 -33 0
-199 -92 0
-199 -37 0
-199 51 0
-199 68 0
199 -29 -98 64 -43 76 33 92 37 -51 -68 0
-200 -24 0
-200 42 0
-200 4 0
-200 -86 0
-200 12 0
-200 -70 0
-200 34 0
-200 47 0
-200 -92 0
-200 -26 0
200 24 -42 -4 86 -12 70 -34 -47 92 26 0
191 192 193 194 195 196 197 198 199 200 0
